p cnf 150 180
-16 -115 -12 0
-103 46 116 0
-90 -118 -48 0
125 8 73 0
62 126 125 0
113 -73 -110 0
-31 78 -138 0
110 -118 81 0
54 -55 23 0
-124 74 -25 0
-135 -96 2 0
23 -146 56 0
-122 135 -124 0
-129 -135 146 0
35 3 -105 0
36 79 21 0
-53 -122 75 0
-14 -23 144 0
104 -112 128 0
144 -11 142 0
-51 -148 -22 0
-84 40 85 0
125 -12 65 0
119 122 107 0
-72 -102 111 0
-86 -42 8 0
-87 84 -85 0
145 -42 142 0
-39 1 3 0
67 -13 -28 0
-13 2 -1 0
-64 108 -23 0
-2 1 128 0
111 62 1 0
149 24 -79 0
24 -57 50 0
-96 92 74 0
138 -116 98 0
140 61 -29 0
-96 -24 -79 0
-140 -6 -95 0
53 -7 12 0
95 -97 142 0
115 11 123 0
37 -76 26 0
124 -30 -107 0
-98 -111 27 0
-47 -5 -97 0
-54 -131 -121 0
-147 -87 115 0
-34 -122 101 0
-82 139 74 0
-19 134 106 0
82 26 31 0
5 -62 114 0
-126 -95 105 0
46 5 56 0
20 -60 -69 0
127 68 12 0
-148 -7 49 0
-139 30 25 0
-134 -129 -87 0
17 72 63 0
101 87 -30 0
77 102 -75 0
134 -79 133 0
-82 -139 43 0
-148 -35 136 0
33 -89 -96 0
-125 74 -30 0
-21 9 6 0
10 108 99 0
-82 131 -123 0
47 32 45 0
64 27 -115 0
-5 -122 132 0
128 -20 -29 0
6 13 123 0
-40 94 43 0
-58 98 75 0
-66 44 61 0
-48 -68 -37 0
44 132 -96 0
-89 -102 -46 0
7 121 -117 0
-34 3 -67 0
58 -72 -86 0
-149 -127 -62 0
84 -24 150 0
12 -116 -123 0
-37 -71 69 0
-141 -142 -80 0
58 33 54 0
-133 -16 -149 0
-20 119 69 0
-96 -81 68 0
107 -84 114 0
29 -100 73 0
149 92 17 0
-27 -8 -83 0
-85 13 84 0
115 38 74 0
-113 54 -141 0
-10 88 140 0
110 5 118 0
-52 -23 31 0
-36 -84 -5 0
-43 -55 -9 0
118 -73 117 0
-44 46 69 0
148 -85 -36 0
-21 -33 -148 0
105 -128 142 0
-74 -147 142 0
2 110 142 0
-70 -86 -117 0
74 -2 53 0
-48 110 130 0
56 -91 70 0
-18 115 103 0
89 -40 143 0
-46 76 57 0
107 -5 45 0
33 75 -128 0
-68 4 17 0
41 26 120 0
-80 39 -121 0
-57 -146 48 0
-125 -3 143 0
-80 -65 27 0
98 118 106 0
90 140 -16 0
-20 24 -139 0
95 -35 -45 0
-59 128 32 0
81 50 -138 0
-50 90 -13 0
17 -130 -108 0
122 -58 93 0
-104 -32 134 0
-117 -138 103 0
-55 150 -104 0
-13 77 -114 0
100 71 46 0
77 69 -139 0
-57 108 -81 0
-82 11 33 0
67 68 145 0
-20 123 -2 0
72 -26 -52 0
x -2 4 -5 -9 -10 12 15 18 -21 -25 28 30 -31 32 34 37 38 40 -41 44 46 48 -49 50 51 52 -53 -56 -59 60 62 -63 -65 67 -68 -69 70 -71 -72 -75 76 77 78 -80 -86 -88 -91 93 96 -97 -98 -99 100 -101 103 -104 106 108 -109 111 113 -119 -121 122 -123 -124 126 -127 128 129 -131 -132 133 -134 -135 -136 137 139 142 -143 -144 -146 147 149 0
x -3 6 -8 -11 12 -13 -15 18 23 -25 -29 31 33 36 44 46 -47 -49 -50 -51 -52 54 57 58 -59 -60 61 62 65 -70 71 73 74 77 78 81 83 85 -86 87 -88 89 94 98 -99 -100 -101 -104 105 106 -107 -108 -109 -110 -114 116 -118 120 121 122 124 125 -127 128 -129 130 -131 -132 -133 -134 -135 -137 138 -139 -143 147 -148 -149 -150 0
x 1 2 4 6 -7 9 -11 12 -14 -17 24 25 27 31 34 -38 41 -42 -44 -49 -50 53 54 -59 -61 63 -64 66 67 -68 -69 70 -72 73 -76 -77 78 81 84 85 86 88 -90 -92 93 94 -96 -101 -103 108 -110 111 -113 115 116 117 -118 -119 -120 -123 -125 -129 -130 -132 -136 138 -139 -140 143 -145 -146 148 -149 -150 0
x 2 4 -5 7 9 -10 11 15 16 -18 19 -20 23 24 27 28 30 -34 -37 38 -39 41 42 45 -47 -49 52 53 -59 -61 -64 65 67 69 71 73 75 76 78 -82 83 84 85 88 89 90 -92 93 94 95 96 99 100 103 104 106 -107 -108 111 -112 114 115 -117 -119 121 122 123 126 127 128 130 -133 -134 139 -141 143 144 -145 -147 148 -149 150 0
x -1 -2 3 -8 18 22 23 24 -25 -29 -30 -33 -34 -40 42 -43 45 48 -49 -50 51 -52 54 55 -57 59 60 61 62 -63 65 -67 -69 77 -78 79 -80 -82 85 87 90 -92 -93 -94 95 -96 -98 101 102 106 107 108 -112 -114 -115 117 -119 120 121 -122 -131 132 134 135 138 141 -148 150 0
x 1 -5 -6 -9 -10 11 -13 14 -15 16 -19 25 -26 28 29 31 -32 33 35 -36 38 40 -42 -43 44 -46 47 50 -52 -54 55 -56 57 -62 63 64 -65 66 -67 70 -73 75 -79 -80 -81 -83 84 -85 -89 -93 -95 96 -97 -98 -103 -106 -107 111 -113 -117 -118 -121 -124 -125 128 130 -133 -139 -140 141 142 144 147 150 0
x -2 -3 4 5 6 -8 10 -11 12 -13 15 -17 19 20 -21 -23 -25 29 -33 37 -38 41 46 -47 48 -53 -54 -57 -58 59 60 -61 -63 64 67 -69 -73 -74 76 -77 81 83 86 87 88 -91 -92 94 95 98 -99 -100 -103 105 -110 111 112 -114 -119 -120 121 122 124 125 126 131 -133 134 137 139 -140 -141 143 -148 -150 0
x -2 -5 -7 9 -10 12 -13 -14 15 -16 19 20 -21 22 -24 26 28 -30 -33 -35 -37 38 -40 -41 42 -43 44 47 58 -59 -60 61 -62 -65 66 67 -69 -70 81 -82 -83 -87 92 93 -98 99 -101 104 -106 -107 113 -114 116 -118 -119 126 -127 -129 -131 133 -136 -137 -139 140 141 142 143 146 148 0
x -1 -3 -5 -6 -7 -9 -10 -13 15 20 -24 26 27 -28 34 35 -36 -43 -44 46 -48 -49 52 -53 -54 58 60 -63 65 66 67 69 -71 -73 76 77 -79 -80 82 -84 -85 -90 93 -94 97 -98 100 -101 102 -103 104 105 -107 -108 114 115 -116 119 121 127 129 132 -134 135 137 138 -140 141 -146 147 -148 149 0
x -1 3 5 -6 7 -8 -9 10 -11 13 14 -17 -18 20 22 -25 26 27 28 -29 -30 31 32 36 37 40 42 45 -49 -51 -54 -55 -57 59 -60 -62 63 -64 65 -68 70 72 -73 75 -77 79 81 83 84 85 86 -87 -88 90 -91 92 93 -97 -99 -100 -103 104 110 -113 114 -116 120 121 125 -126 127 128 130 132 134 -135 -138 139 140 144 -146 149 0
x 2 -4 -6 -9 -10 -12 14 -15 -17 24 -26 -28 -29 -30 31 34 35 -37 38 39 -41 -42 -43 -46 47 -52 -53 57 -59 60 61 62 64 65 -67 -68 -70 73 75 76 77 78 -79 -80 81 82 83 -85 -86 89 91 -92 96 102 -104 106 107 -108 115 -118 -125 127 -128 -129 130 -140 141 142 -143 -144 -146 -149 150 0
x -2 -3 -4 6 8 10 11 -15 16 19 -20 21 -23 24 -26 -27 30 31 32 33 36 -37 39 40 -41 -45 46 -47 -49 -50 -52 -53 63 69 70 71 73 75 -84 -86 89 90 91 92 93 99 100 102 104 -108 -112 113 114 -117 -119 -120 123 124 127 -129 131 132 135 -138 140 144 145 -146 -147 148 0
x -3 5 6 -7 -9 10 11 -13 14 -15 16 17 -18 19 20 -21 -23 25 -27 29 30 -33 36 -37 40 -44 -46 47 49 -50 51 54 -56 -58 -60 -64 -68 -71 72 73 -74 -77 -79 83 -84 -86 87 88 -89 91 -92 -93 95 -97 101 -102 104 -110 -111 -112 -115 116 -120 122 123 124 125 -126 129 -130 -131 -133 134 135 -136 -141 -142 -143 -144 -145 146 -147 148 -150 0
x 2 -6 9 11 -12 14 15 -16 -18 -19 -21 24 27 28 -30 -31 -32 -34 -35 36 -38 40 -42 -43 44 -45 -46 47 -50 -53 -55 56 57 58 61 64 -67 68 -70 -77 -78 -79 83 84 -86 87 89 91 93 95 97 -103 -105 106 107 -109 111 112 -114 118 -119 -122 -123 -124 -125 -126 130 134 -135 -136 137 139 140 141 -142 145 -147 0
x 2 4 -6 -9 -11 -12 -13 21 25 -28 -30 -32 -33 -35 -37 38 39 41 -42 44 45 -48 -50 51 -52 53 55 -57 61 -62 65 -68 -69 -77 -80 -81 82 84 -86 -88 -89 -90 -92 -94 95 -100 101 102 104 -112 116 -124 125 129 -131 133 135 -138 -142 143 -144 145 -146 149 0
x -1 3 4 -6 -8 10 11 12 -14 16 19 -20 -21 -23 25 26 27 -31 32 34 -35 36 37 39 41 -43 -44 45 -49 51 -52 -57 59 -60 -62 67 68 71 -79 -80 -85 -93 -97 -98 99 -102 -105 111 -112 113 -115 116 -117 118 -123 125 126 -128 -129 131 132 133 -134 138 -144 147 -148 0
x 4 6 7 8 -9 10 -11 -13 15 -17 19 -24 25 -26 -28 32 -34 35 -36 37 40 41 -43 44 -46 -48 -50 -51 57 -62 63 66 67 70 72 73 74 75 -76 -79 -80 81 82 -84 86 87 -88 -89 91 -93 -94 -96 -101 -104 -106 -107 -109 -110 111 -114 115 118 121 -124 125 -126 -129 130 -131 -133 134 135 136 141 -142 143 -144 147 -148 150 0
x 1 -2 6 7 8 -10 -11 -12 14 -17 18 -21 -22 23 -26 28 30 31 -32 34 -36 39 -45 47 -50 53 -54 -56 57 -58 59 -62 -63 64 -65 -67 -70 -74 75 -78 -79 -81 82 83 -85 -86 87 -88 -90 94 95 -98 101 -103 104 -105 106 110 -112 113 117 -119 -124 -125 126 -127 128 -129 130 132 133 -135 138 139 140 146 147 150 0
x -3 5 -8 -9 -10 -12 -13 15 -16 -17 18 -19 -20 -28 -29 -30 -32 34 -35 -36 -37 41 -48 51 53 54 -56 -57 59 61 -63 64 65 72 -73 -74 -76 77 -78 79 80 -81 -82 -84 86 -87 91 -92 -94 96 -97 -101 -102 104 -107 111 -114 116 -117 118 -121 123 -124 -125 126 127 -129 -131 -133 -136 -137 -138 139 -141 -145 -146 -147 148 0
x 1 4 6 -7 -8 9 11 -13 -15 18 -19 21 -22 -25 -26 -29 31 -35 -36 -37 39 -40 42 -43 -45 46 48 -53 54 55 -57 58 -66 68 -70 71 74 75 76 77 79 82 -84 86 -87 -90 -91 -92 -95 96 -97 101 -102 103 -108 -109 -111 112 -113 -114 -117 119 125 126 127 128 130 -134 -135 136 -137 -139 140 142 143 -145 0
x -1 2 3 -5 -6 8 10 14 16 -18 19 -20 21 -22 -24 -27 30 32 33 34 -35 -39 42 45 -47 -48 49 52 -58 -59 -60 -61 -62 67 -73 -74 75 -77 -78 -79 -81 82 -84 87 90 91 -93 94 95 -99 -103 105 -106 -107 109 -111 -112 115 -117 -118 119 -120 121 122 -123 124 125 -126 -128 133 136 -138 139 140 141 142 145 147 150 0
x 1 -2 -3 -4 5 6 -7 8 -11 -12 -15 19 23 25 -26 -28 -29 34 -35 44 -45 51 -53 -57 60 61 -63 -64 -67 -68 69 70 -71 -72 -74 75 -77 -78 79 -80 81 84 86 87 88 90 -91 92 -97 -99 -102 -104 108 -110 111 113 115 -116 118 -119 -121 123 -125 127 128 -129 131 134 -136 -137 -140 142 143 144 -147 -148 149 0
x 1 2 6 -10 -12 15 16 17 -20 21 -22 23 24 25 26 27 -28 -29 -30 -32 -33 -34 -36 -37 40 -41 42 44 45 46 49 51 -55 57 59 -62 63 64 65 -71 -72 -74 76 79 -80 83 -85 -88 90 -96 97 -98 -102 104 -111 -119 120 122 -123 -124 -126 -128 129 -130 -132 -133 -135 -138 140 -141 143 145 148 -150 0
x -2 9 11 12 13 17 -18 19 -22 -25 -29 -30 33 -34 -37 -38 40 44 49 -57 59 -61 62 63 -64 65 -66 68 72 74 76 79 -83 -87 -88 91 92 93 -96 97 98 -99 -101 102 104 105 -107 -111 114 116 117 -120 122 124 -125 -126 128 -129 131 -132 135 -140 -143 146 150 0
x -4 6 7 8 10 12 15 18 -22 26 -29 31 32 -33 -34 -35 36 38 -39 -40 -41 42 -43 -44 -46 -47 -50 52 54 -55 56 60 -63 64 65 -66 68 -69 72 -75 77 -82 -83 85 -87 -88 -91 92 93 -96 -97 -99 -102 103 104 105 106 -108 112 -113 -114 -115 -116 117 118 119 -120 -122 -127 -128 129 130 -132 -133 135 -136 137 139 -143 145 -148 -149 0
x -2 6 7 -10 -12 -15 16 -17 18 -19 -20 -24 -25 -26 -27 -28 30 -32 35 -36 37 -38 39 -43 46 51 53 -54 -55 56 -58 59 60 61 64 65 67 -68 -71 74 75 76 -77 82 -83 -84 85 86 87 89 -91 95 -97 -98 99 102 104 -106 107 -109 -111 -114 117 -120 122 124 -125 126 129 133 -135 136 -137 140 141 142 145 -146 147 148 149 0
x -1 3 -6 9 12 15 16 -20 23 -24 -28 -29 -32 34 35 -36 -37 -38 -39 41 43 -44 -49 -50 52 58 -59 61 69 73 -74 76 -77 -79 80 -83 -86 -88 -89 90 91 93 96 97 98 99 -100 -101 104 105 106 -107 -108 109 -110 112 113 -114 -117 121 126 -134 138 141 -142 -143 -147 -149 150 0
x 2 -7 11 -13 14 -15 -16 19 -20 24 28 -31 -32 -36 37 -39 41 -42 44 47 -50 52 57 -59 64 65 -67 68 -69 -71 72 -76 77 80 81 82 84 86 90 93 -94 98 -99 -101 -102 -106 -107 -108 -109 -110 -111 -114 -115 -116 -118 121 123 126 -127 129 -130 -133 -134 136 137 -139 142 143 148 150 0
x -2 7 8 -10 -11 -14 16 17 -18 -20 -22 24 27 30 32 35 -39 -41 -42 44 -47 48 -49 50 -52 53 -56 -57 -58 -59 -60 -62 -66 -67 69 -70 -71 -73 -74 -77 79 80 -81 -82 -84 85 -88 -90 -92 93 94 -97 98 103 104 -105 -106 107 -108 -109 -111 -113 -114 115 116 117 -118 120 -121 -122 -124 125 -130 -131 -135 -136 -138 139 140 -141 143 148 150 0
x -1 -3 4 -5 9 -10 -12 -13 -14 -15 -17 22 -23 24 26 -28 29 34 38 -41 -42 50 -51 -52 -53 54 -57 -58 -60 63 64 65 -66 -67 68 70 -72 -73 74 -76 78 -80 -81 83 -85 -86 -87 89 -91 -92 93 -94 97 98 102 -103 -104 -105 106 108 -110 114 115 118 120 -121 -124 -128 -134 -135 -136 -139 -140 143 -148 150 0
